p tw 193 353
1 97
1 98
1 126
1 127
2 58
2 59
2 135
2 136
2 140
2 141
3 86
3 87
3 160
3 161
4 91
4 92
4 171
4 172
5 44
5 141
5 142
6 105
6 106
6 186
6 187
7 59
7 60
7 142
7 143
8 78
8 150
8 151
9 70
9 71
9 133
9 134
10 99
10 100
10 179
10 180
11 88
11 89
11 168
11 169
12 113
12 114
12 191
12 192
13 58
13 139
13 140
14 95
14 96
14 176
14 177
15 98
15 99
15 125
15 126
16 103
16 104
16 156
16 157
17 19
17 93
17 94
17 136
18 106
18 107
18 159
18 160
19 108
19 109
19 136
20 132
20 133
20 138
20 139
20 145
21 83
21 84
21 158
21 159
22 93
22 131
22 132
23 75
23 127
23 128
23 172
23 173
24 114
24 173
24 174
25 120
25 121
25 187
25 188
26 123
26 174
26 175
26 193
27 76
27 129
27 130
28 111
28 112
28 166
28 167
28 190
28 191
29 63
29 64
29 145
29 146
30 115
30 146
30 147
31 77
31 137
31 138
32 110
32 111
32 189
32 190
33 73
33 74
33 167
33 168
34 76
34 77
34 137
35 107
35 108
35 162
35 163
36 65
36 66
36 154
36 155
37 66
37 67
37 155
37 156
38 69
38 70
38 157
38 158
39 96
39 97
39 124
39 125
39 152
39 153
40 71
40 72
40 163
40 164
41 74
41 75
41 169
41 170
42 115
42 116
42 148
42 149
43 82
43 83
43 183
43 184
44 143
44 144
45 61
45 62
45 144
46 90
46 91
46 192
46 193
47 101
47 102
47 181
47 182
48 116
48 117
48 149
48 150
49 118
49 119
49 153
49 154
50 87
50 88
50 124
50 165
50 166
51 80
51 81
51 178
51 179
52 78
52 79
52 176
53 117
53 118
53 151
53 152
54 112
54 113
54 170
54 171
55 122
55 123
55 164
55 165
56 85
56 86
56 134
56 135
56 161
56 162
57 68
57 69
57 185
57 186
58 59
59 60
60 61
61 62
62 63
63 64
64 65
65 66
66 67
67 68
68 69
69 70
70 71
71 72
72 73
73 74
74 75
76 77
78 79
79 80
80 81
81 82
82 83
83 84
84 85
85 86
86 87
87 88
88 89
89 90
90 91
91 92
92 175
93 94
94 95
95 96
96 97
97 98
98 99
99 100
100 101
101 102
102 103
103 104
104 105
105 106
106 107
107 108
108 109
109 110
110 111
111 112
112 113
113 114
115 116
116 117
117 118
118 119
119 120
120 121
121 122
122 123
124 125
125 126
126 127
127 128
128 129
129 130
130 131
131 132
132 133
133 134
134 135
135 136
137 138
138 139
139 140
140 141
141 142
142 143
143 144
145 146
146 147
147 148
148 149
149 150
150 151
151 152
152 153
153 154
154 155
155 156
156 157
157 158
158 159
159 160
160 161
161 162
162 163
163 164
164 165
165 166
166 167
167 168
168 169
169 170
170 171
171 172
172 173
173 174
174 175
176 177
177 178
178 179
179 180
180 181
181 182
182 183
183 184
184 185
185 186
186 187
187 188
188 189
189 190
190 191
191 192
192 193
